peakDumbCharging = 22200; 
Machine = anon_enum(16); 
machineSpeed = [3700,3700,3700,3700,3700,3700,3700,3700,3700,3700,3700,3700,3700,3700,3700,3700]; 
machineLoad = [3700,3700,3700,3700,3700,3700,3700,3700,3700,3700,3700,3700,3700,3700,3700,3700]; 
Car = anon_enum(21); 
demandCar = [3880,3960,5960,7160,5840,1360,2560,17920,4960,11880,10600,3360,10240,4760,5640,6800,2360,8080,7960,28280,32600]; 
arrivalCar = [79,75,73,67,67,67,64,64,63,63,62,61,61,60,59,59,46,44,41,32,27]; 
departureCar = [81,77,77,73,70,69,67,72,67,68,68,65,65,62,62,62,47,48,45,50,59]; 
